language Essence 1.3

letting bot_end be [1333, 1302, 1242, 1273, 72, 186, 1292, 1331, 13, 2, 12, 82, 1248, 1315, 15, 69, 89, 9; int(1..18)]
letting bot_start be
        [277, 38, 43, 130, 1264, 1272, 105, 306, 1036, 1074, 1068, 1109, 34, 283, 1088, 1152, 1291, 1096; int(1..18)]
letting buffer_col be 2
letting buffer_row be 2
letting corridor_size be 3
letting n_shelves_col be 2
letting n_shelves_row be 23
letting shelf_col_size be 2
letting shelf_row_size be 1
